qbf_easy_train/easy_4744_SAT.qdimacs
p cnf 24 62
a 12 7 0
e 1 2 3 4 5 6 8 9 10 11 13 14 15 16 17 18 19 20 21 22 23 24 0
3 2 0
3 -1 0
-2 1 -3 0
-1 3 -4 0
1 -3 -4 0
-1 -3 4 0
1 3 4 0
-7 5 0
-7 -6 0
-5 6 7 0
-8 -4 0
-8 7 0
4 -7 8 0
9 -1 0
9 6 0
1 -6 -9 0
-10 -9 0
-10 5 0
9 -5 10 0
-8 -10 -11 0
8 10 -11 0
-8 10 11 0
8 -10 11 0
13 9 0
13 -12 0
-9 12 -13 0
-6 -14 -15 0
6 14 -15 0
-6 14 15 0
6 -14 15 0
16 -15 0
16 6 0
15 -6 -16 0
-19 -17 0
-19 18 0
17 -18 19 0
16 19 -20 0
-16 -19 -20 0
16 -19 20 0
-16 19 20 0
-13 -20 -21 0
13 20 -21 0
-13 20 21 0
13 -20 21 0
-1 -2 -22 0
1 2 -22 0
-1 2 22 0
1 -2 22 0
21 -22 -23 0
-21 22 -23 0
21 22 23 0
-21 -22 23 0
24 11 0
24 -23 0
-11 23 -24 0
4 22 0
-19 -7 -11 -14 0
-12 24 8 22 0
14 -16 12 -20 0
-10 -23 -11 -22 3 -1 0
-11 5 -17 -2 18 -16 0
24 0
