sat_easy_train/easy_4744_SAT.dimacs
p cnf 122 409
-3 1 0
-3 -2 0
-1 2 3 0
3 4 -5 0
-3 -4 -5 0
3 -4 5 0
-3 4 5 0
-6 -5 0
-6 4 0
5 -4 6 0
7 8 -9 0
-7 -8 -9 0
7 -8 9 0
-7 8 9 0
-11 9 0
-11 10 0
-9 -10 11 0
12 -6 0
12 11 0
6 -11 -12 0
-14 13 0
-14 -7 0
-13 7 14 0
-17 15 0
-17 16 0
-15 -16 17 0
-19 17 0
-19 -18 0
-17 18 19 0
-14 -19 -20 0
14 19 -20 0
-14 19 20 0
14 -19 20 0
21 4 0
21 -3 0
-4 3 -21 0
-22 21 0
-22 13 0
-21 -13 22 0
23 -20 0
23 22 0
20 -22 -23 0
12 23 -24 0
-12 -23 -24 0
12 -23 24 0
-12 23 24 0
-1 10 -25 0
1 -10 -25 0
-1 -10 25 0
1 10 25 0
26 4 0
26 -25 0
-4 25 -26 0
-28 27 0
-28 -3 0
-27 3 28 0
-29 -26 0
-29 28 0
26 -28 29 0
31 9 0
31 30 0
-9 -30 -31 0
-1 -5 -32 0
1 5 -32 0
-1 5 32 0
1 -5 32 0
-31 32 -33 0
31 -32 -33 0
-31 -32 33 0
31 32 33 0
-34 3 0
-34 -16 0
-3 16 34 0
35 -33 0
35 -34 0
33 34 -35 0
-36 -2 0
-36 27 0
2 -27 36 0
-37 -36 0
-37 -3 0
36 3 37 0
-38 35 0
-38 -37 0
-35 37 38 0
-25 1 -39 0
25 -1 -39 0
-25 -1 39 0
25 1 39 0
28 -39 -40 0
-28 39 -40 0
28 39 40 0
-28 -39 40 0
41 25 0
41 -8 0
-25 8 -41 0
41 27 -42 0
-41 -27 -42 0
41 -27 42 0
-41 27 42 0
-36 -13 -43 0
36 13 -43 0
-36 13 43 0
36 -13 43 0
42 43 -44 0
-42 -43 -44 0
42 -43 44 0
-42 43 44 0
45 -4 0
45 44 0
4 -44 -45 0
46 40 0
46 45 0
-40 -45 -46 0
47 38 0
47 -46 0
-38 46 -47 0
48 30 0
48 -14 0
-30 14 -48 0
47 48 -49 0
-47 -48 -49 0
47 -48 49 0
-47 48 49 0
-50 25 0
-50 27 0
-25 -27 50 0
49 50 -51 0
-49 -50 -51 0
49 -50 51 0
-49 50 51 0
52 -29 0
52 51 0
29 -51 -52 0
36 2 -53 0
-36 -2 -53 0
36 -2 53 0
-36 2 53 0
-54 53 0
-54 -41 0
-53 41 54 0
54 14 -55 0
-54 -14 -55 0
54 -14 55 0
-54 14 55 0
-56 -55 0
-56 -40 0
55 40 56 0
57 -56 0
57 27 0
56 -27 -57 0
36 -42 -58 0
-36 42 -58 0
36 42 58 0
-36 -42 58 0
-59 22 0
-59 58 0
-22 -58 59 0
-60 53 0
-60 53 0
-53 60 0
-60 61 -62 0
60 -61 -62 0
-60 -61 62 0
60 61 62 0
-63 59 0
-63 62 0
-59 -62 63 0
-64 41 0
-64 -53 0
-41 53 64 0
-18 -61 -65 0
18 61 -65 0
-18 61 65 0
18 -61 65 0
66 -8 0
66 65 0
8 -65 -66 0
-66 67 -68 0
66 -67 -68 0
-66 -67 68 0
66 67 68 0
64 -68 -69 0
-64 68 -69 0
64 68 69 0
-64 -68 69 0
71 -70 0
71 -65 0
70 65 -71 0
-72 69 0
-72 -71 0
-69 71 72 0
73 61 0
73 -36 0
-61 36 -73 0
74 -73 0
74 41 0
73 -41 -74 0
75 -72 0
75 -74 0
72 74 -75 0
-63 -75 -76 0
63 75 -76 0
-63 75 76 0
63 -75 76 0
-77 57 0
-77 -76 0
-57 76 77 0
-78 13 0
-78 -21 0
-13 21 78 0
-30 -7 -79 0
30 7 -79 0
-30 7 79 0
30 -7 79 0
-79 3 -80 0
79 -3 -80 0
-79 -3 80 0
79 3 80 0
81 78 0
81 -80 0
-78 80 -81 0
-82 77 0
-82 81 0
-77 -81 82 0
-83 52 0
-83 82 0
-52 -82 83 0
-84 -24 0
-84 -83 0
24 83 84 0
85 16 0
85 67 0
-16 -67 -85 0
86 -85 0
86 14 0
85 -14 -86 0
87 -25 0
87 -86 0
25 86 -87 0
-18 -87 -88 0
18 87 -88 0
-18 87 88 0
18 -87 88 0
-89 18 0
-89 -53 0
-18 53 89 0
90 -88 0
90 -89 0
88 89 -90 0
18 -19 -91 0
-18 19 -91 0
18 19 91 0
-18 -19 91 0
-43 -10 -92 0
43 10 -92 0
-43 10 92 0
43 -10 92 0
-91 92 -93 0
91 -92 -93 0
-91 -92 93 0
91 92 93 0
-94 43 0
-94 31 0
-43 -31 94 0
-94 36 -95 0
94 -36 -95 0
-94 -36 95 0
94 36 95 0
93 -95 -96 0
-93 95 -96 0
93 95 96 0
-93 -95 96 0
-90 -96 -97 0
90 96 -97 0
-90 96 97 0
90 -96 97 0
98 -8 0
98 25 0
8 -25 -98 0
-98 -43 -99 0
98 43 -99 0
-98 43 99 0
98 -43 99 0
-40 -4 -100 0
40 4 -100 0
-40 4 100 0
40 -4 100 0
101 -86 0
101 8 0
86 -8 -101 0
-102 33 0
-102 -8 0
-33 8 102 0
103 101 0
103 102 0
-101 -102 -103 0
104 100 0
104 -103 0
-100 103 -104 0
-4 -3 -105 0
4 3 -105 0
-4 3 105 0
4 -3 105 0
106 14 0
106 -27 0
-14 27 -106 0
107 43 0
107 106 0
-43 -106 -107 0
-108 13 0
-108 -30 0
-13 30 108 0
109 98 0
109 -16 0
-98 16 -109 0
-17 -110 -111 0
17 110 -111 0
-17 110 111 0
17 -110 111 0
-111 110 -112 0
111 -110 -112 0
-111 -110 112 0
111 110 112 0
-113 42 0
-113 15 0
-42 -15 113 0
114 112 0
114 -113 0
-112 113 -114 0
-115 109 0
-115 -114 0
-109 114 115 0
116 108 0
116 115 0
-108 -115 -116 0
-117 107 0
-117 116 0
-107 -116 117 0
-118 105 0
-118 117 0
-105 -117 118 0
-119 104 0
-119 -118 0
-104 118 119 0
99 119 -120 0
-99 -119 -120 0
99 -119 120 0
-99 119 120 0
121 97 0
121 120 0
-97 -120 -121 0
122 -84 0
122 -121 0
84 121 -122 0
-34 -20 68 -38 0
-28 -35 87 13 -47 -91 0
88 -32 90 52 100 27 0
-78 25 0
111 -104 -48 20 62 79 0
42 113 0
-56 -38 65 45 -108 0
-72 -35 0
-38 -59 -23 -1 0
-103 -112 -20 34 0
-59 30 89 69 0
-20 -16 108 84 114 0
93 -42 17 -61 23 5 0
8 -48 -100 0
39 -35 -54 85 -77 0
-101 -50 20 38 0
58 -2 -56 29 42 0
79 -9 51 -3 -36 0
100 110 80 115 0
40 -27 -66 80 -76 0
30 -12 55 95 0
-20 -66 67 0
104 -105 1 78 0
-17 -80 -13 -19 0
48 101 -83 84 69 1 0
-88 7 58 0
-28 -37 0
-3 103 -71 60 100 -21 0
-106 -14 56 121 33 -73 0
-115 -73 -60 -116 0
39 43 -48 -27 0
6 -26 99 -41 -17 0
-87 -60 -10 -34 99 0
15 84 -9 73 -60 0
-25 110 -69 -43 85 -100 0
77 53 -112 113 -48 -111 0
-66 50 -93 83 0
41 83 117 0
-60 67 -79 -65 0
-17 49 -93 108 0
-37 -80 0
94 80 53 -83 0
-27 -19 81 0
79 12 -50 -80 -89 0
115 -49 -40 25 19 0
82 -107 -8 0
-70 -25 0
14 -80 13 0
67 81 -109 64 84 20 0
-19 40 0
3 -92 -118 122 0
-9 66 -34 -23 -117 0
90 -39 -18 -70 32 -56 0
122 0
